
Welcome to IBM(R) ILOG(R) CPLEX(R) Interactive Optimizer 12.7.1.0
  with Simplex, Mixed Integer & Barrier Optimizers
5725-A06 5725-A29 5724-Y48 5724-Y49 5724-Y54 5724-Y55 5655-Y21
Copyright IBM Corp. 1988, 2017.  All Rights Reserved.

Type 'help' for a list of available commands.
Type 'help' followed by a command name for more
information on commands.

CPLEX> New value for default parallel thread count: 1
CPLEX> New value for time limit in seconds: 3600
CPLEX> Problem 'pr152_m32.lp' read.
Read time = 1.40 sec. (80.93 ticks)
CPLEX> CPXPARAM_TimeLimit                               3600
CPXPARAM_Threads                                 1
CPXPARAM_Read_APIEncoding                        "UTF-8"
Tried aggregator 1 time.
Reduced MIP has 27880 rows, 734616 columns, and 4432788 nonzeros.
Reduced MIP has 734464 binaries, 151 generals, 0 SOSs, and 0 indicators.
Presolve time = 1.92 sec. (1693.23 ticks)
Tried aggregator 1 time.
Reduced MIP has 27880 rows, 734616 columns, and 4432788 nonzeros.
Reduced MIP has 734464 binaries, 151 generals, 0 SOSs, and 0 indicators.
Presolve time = 3.64 sec. (2449.34 ticks)
Probing time = 0.86 sec. (277.76 ticks)
Cover probing fixed 0 vars, tightened 1 bounds.
Clique table members: 1118291.
MIP emphasis: balance optimality and feasibility.
MIP search method: dynamic search.
Parallel mode: none, using 1 thread.
Root relaxation solution time = 1868.47 sec. (2136486.50 ticks)

        Nodes                                         Cuts/
   Node  Left     Objective  IInf  Best Integer    Best Bound    ItCnt     Gap

      0     0     8662.7646   517                   8662.7646   448477         
      0     0     8686.5797   486                   Cuts: 113   449107         
      0     0     8707.8750   563                   Cuts: 310   449465         
      0     0     8707.8750   545                    Cuts: 92   449605         
      0     0     8707.8750   535                    Cuts: 32   449649         
      0     0     8707.8750   537                    Cuts: 47   449746         
      0     0     8707.8750   491                     Cuts: 3   449761         
      0     0     8707.8750   502                   Cuts: 124   449942         
Heuristic still looking.
Heuristic still looking.

Clique cuts applied:  31
Implied bound cuts applied:  19
Mixed integer rounding cuts applied:  128
Zero-half cuts applied:  106
Gomory fractional cuts applied:  3

Root node processing (before b&c):
  Real time             = 3600.11 sec. (5260703.29 ticks)
Sequential b&c:
  Real time             =    0.00 sec. (0.00 ticks)
                          ------------
Total (root+branch&cut) = 3600.11 sec. (5260703.29 ticks)


MIP - Time limit exceeded, no integer solution.
Current MIP best bound =  8.7078750000e+03 (gap is infinite)
Solution time = 3600.11 sec.  Iterations = 449942  Nodes = 0 (1)
Deterministic time = 5260705.39 ticks  (1461.26 ticks/sec)

CPLEX> No integer feasible solution exists.
CPLEX> 